objective value:                                11238
t_x_3                                               1 	(obj:42)
t_x_5                                               1 	(obj:15)
t_x_10                                              1 	(obj:14)
t_x_12                                              1 	(obj:9)
t_x_15                                              1 	(obj:4)
t_x_19                                              1 	(obj:14)
t_x_23                                              1 	(obj:32)
t_x_24                                              1 	(obj:53)
t_x_26                                              1 	(obj:62)
t_x_27                                              1 	(obj:4)
t_x_29                                              1 	(obj:15)
t_x_30                                              1 	(obj:10)
t_x_32                                              1 	(obj:3)
t_x_33                                              1 	(obj:51)
t_x_34                                              1 	(obj:24)
t_x_36                                              1 	(obj:15)
t_x_37                                              1 	(obj:19)
t_x_38                                              1 	(obj:26)
t_x_44                                              1 	(obj:33)
t_x_45                                              1 	(obj:1)
t_x_47                                              1 	(obj:21)
t_x_48                                              1 	(obj:71)
t_x_50                                              1 	(obj:4)
t_x_51                                              1 	(obj:0)
t_x_53                                              1 	(obj:52)
t_x_54                                              1 	(obj:9)
t_x_58                                              1 	(obj:37)
t_x_60                                              1 	(obj:13)
t_x_62                                              1 	(obj:11)
t_x_63                                              1 	(obj:14)
t_x_64                                              1 	(obj:55)
t_x_65                                              1 	(obj:8)
t_x_66                                              1 	(obj:5)
t_x_68                                              1 	(obj:26)
t_x_71                                              1 	(obj:45)
t_x_72                                              1 	(obj:9)
t_x_74                                              1 	(obj:3)
t_x_78                                              1 	(obj:29)
t_x_79                                              1 	(obj:33)
t_x_80                                              1 	(obj:8)
t_x_81                                              1 	(obj:29)
t_x_84                                              1 	(obj:23)
t_x_85                                              1 	(obj:1)
t_x_86                                              1 	(obj:25)
t_x_90                                              1 	(obj:9)
t_x_94                                              1 	(obj:35)
t_x_98                                              1 	(obj:20)
t_x_100                                             1 	(obj:36)
t_x_105                                             1 	(obj:19)
t_x_108                                             1 	(obj:10)
t_x_111                                             1 	(obj:19)
t_x_114                                             1 	(obj:31)
t_x_123                                             1 	(obj:27)
t_x_124                                             1 	(obj:26)
t_x_127                                             1 	(obj:33)
t_x_128                                             1 	(obj:12)
t_x_129                                             1 	(obj:7)
t_x_132                                             1 	(obj:42)
t_x_133                                             1 	(obj:53)
t_x_134                                             1 	(obj:6)
t_x_136                                             1 	(obj:34)
t_x_137                                             1 	(obj:14)
t_x_142                                             1 	(obj:38)
t_x_147                                             1 	(obj:19)
t_x_152                                             1 	(obj:1)
t_x_153                                             1 	(obj:12)
t_x_156                                             1 	(obj:17)
t_x_157                                             1 	(obj:10)
t_x_161                                             1 	(obj:4)
t_x_165                                             1 	(obj:0)
t_x_174                                             1 	(obj:9)
t_x_181                                             1 	(obj:21)
t_x_182                                             1 	(obj:27)
t_x_184                                             1 	(obj:15)
t_x_185                                             1 	(obj:21)
t_x_186                                             1 	(obj:21)
t_x_189                                             1 	(obj:9)
t_x_192                                             1 	(obj:38)
t_x_194                                             1 	(obj:26)
t_x_196                                             1 	(obj:14)
t_x_197                                             1 	(obj:30)
t_x_198                                             1 	(obj:13)
t_x_201                                             1 	(obj:10)
t_x_205                                             1 	(obj:22)
t_x_206                                             1 	(obj:31)
t_x_207                                             1 	(obj:20)
t_x_209                                             1 	(obj:2)
t_x_212                                             1 	(obj:16)
t_x_215                                             1 	(obj:29)
t_x_222                                             1 	(obj:20)
t_x_223                                             1 	(obj:4)
t_x_227                                             1 	(obj:31)
t_x_230                                             1 	(obj:12)
t_x_233                                             1 	(obj:8)
t_x_235                                             1 	(obj:4)
t_x_239                                             1 	(obj:24)
t_x_245                                             1 	(obj:23)
t_x_248                                             1 	(obj:16)
t_x_254                                             1 	(obj:35)
t_x_258                                             1 	(obj:5)
t_x_259                                             1 	(obj:11)
t_x_260                                             1 	(obj:8)
t_x_263                                             1 	(obj:68)
t_x_266                                             1 	(obj:50)
t_x_267                                             1 	(obj:3)
t_x_269                                             1 	(obj:8)
t_x_270                                             1 	(obj:6)
t_x_274                                             1 	(obj:10)
t_x_285                                             1 	(obj:19)
t_x_288                                             1 	(obj:28)
t_x_291                                             1 	(obj:1)
t_x_292                                             1 	(obj:27)
t_x_294                                             1 	(obj:4)
t_x_300                                             1 	(obj:27)
t_x_306                                             1 	(obj:9)
t_x_308                                             1 	(obj:19)
t_x_314                                             1 	(obj:0)
t_x_318                                             1 	(obj:5)
t_x_322                                             1 	(obj:38)
t_x_323                                             1 	(obj:21)
t_x_327                                             1 	(obj:7)
t_x_333                                             1 	(obj:16)
t_x_341                                             1 	(obj:7)
t_x_345                                             1 	(obj:28)
t_x_347                                             1 	(obj:59)
t_x_348                                             1 	(obj:3)
t_x_350                                             1 	(obj:25)
t_x_352                                             1 	(obj:6)
t_x_359                                             1 	(obj:15)
t_x_362                                             1 	(obj:2)
t_x_365                                             1 	(obj:6)
t_x_367                                             1 	(obj:6)
t_x_373                                             1 	(obj:21)
t_x_376                                             1 	(obj:21)
t_x_379                                             1 	(obj:9)
t_x_380                                             1 	(obj:10)
t_x_383                                             1 	(obj:51)
t_x_388                                             1 	(obj:2)
t_x_390                                             1 	(obj:9)
t_x_392                                             1 	(obj:13)
t_x_393                                             1 	(obj:23)
t_x_395                                             1 	(obj:44)
t_x_398                                             1 	(obj:46)
t_x_399                                             1 	(obj:3)
t_x_401                                             1 	(obj:9)
t_x_413                                             1 	(obj:26)
t_x_414                                             1 	(obj:3)
t_x_416                                             1 	(obj:13)
t_x_420                                             1 	(obj:8)
t_x_423                                             1 	(obj:10)
t_x_426                                             1 	(obj:2)
t_x_429                                             1 	(obj:4)
t_x_431                                             1 	(obj:6)
t_x_435                                             1 	(obj:9)
t_x_442                                             1 	(obj:36)
t_x_447                                             1 	(obj:10)
t_x_454                                             1 	(obj:40)
t_x_457                                             1 	(obj:7)
t_x_463                                             1 	(obj:13)
t_x_465                                             1 	(obj:23)
t_x_466                                             1 	(obj:21)
t_x_472                                             1 	(obj:21)
t_x_473                                             1 	(obj:50)
t_x_474                                             1 	(obj:35)
t_x_476                                             1 	(obj:14)
t_x_481                                             1 	(obj:24)
t_x_483                                             1 	(obj:8)
t_x_485                                             1 	(obj:20)
t_x_489                                             1 	(obj:40)
t_x_494                                             1 	(obj:33)
t_x_500                                             1 	(obj:25)
t_x_502                                             1 	(obj:6)
t_x_503                                             1 	(obj:29)
t_x_508                                             1 	(obj:22)
t_x_509                                             1 	(obj:29)
t_x_511                                             1 	(obj:21)
t_x_515                                             1 	(obj:13)
t_x_517                                             1 	(obj:17)
t_x_519                                             1 	(obj:18)
t_x_520                                             1 	(obj:4)
t_x_527                                             1 	(obj:2)
t_x_532                                             1 	(obj:4)
t_x_537                                             1 	(obj:15)
t_x_541                                             1 	(obj:8)
t_x_542                                             1 	(obj:11)
t_x_544                                             1 	(obj:25)
t_x_545                                             1 	(obj:2)
t_x_548                                             1 	(obj:5)
t_x_553                                             1 	(obj:48)
t_x_555                                             1 	(obj:26)
t_x_557                                             1 	(obj:1)
t_x_558                                             1 	(obj:17)
t_x_572                                             1 	(obj:27)
t_x_574                                             1 	(obj:13)
t_x_575                                             1 	(obj:38)
t_x_576                                             1 	(obj:16)
t_x_579                                             1 	(obj:6)
t_x_582                                             1 	(obj:12)
t_x_598                                             1 	(obj:23)
t_x_601                                             1 	(obj:22)
t_x_604                                             1 	(obj:35)
t_x_605                                             1 	(obj:26)
t_x_607                                             1 	(obj:42)
t_x_613                                             1 	(obj:3)
t_x_614                                             1 	(obj:36)
t_x_618                                             1 	(obj:21)
t_x_623                                             1 	(obj:5)
t_x_627                                             1 	(obj:13)
t_x_628                                             1 	(obj:55)
t_x_636                                             1 	(obj:0)
t_x_642                                             1 	(obj:14)
t_x_644                                             1 	(obj:33)
t_x_649                                             1 	(obj:52)
t_x_651                                             1 	(obj:22)
t_x_653                                             1 	(obj:7)
t_x_660                                             1 	(obj:57)
t_x_662                                             1 	(obj:25)
t_x_663                                             1 	(obj:46)
t_x_670                                             1 	(obj:23)
t_x_672                                             1 	(obj:7)
t_x_673                                             1 	(obj:70)
t_x_676                                             1 	(obj:26)
t_x_677                                             1 	(obj:30)
t_x_678                                             1 	(obj:25)
t_x_680                                             1 	(obj:46)
t_x_684                                             1 	(obj:11)
t_x_687                                             1 	(obj:14)
t_x_704                                             1 	(obj:0)
t_x_709                                             1 	(obj:17)
t_x_711                                             1 	(obj:22)
t_x_715                                             1 	(obj:6)
t_x_716                                             1 	(obj:0)
t_x_717                                             1 	(obj:21)
t_x_718                                             1 	(obj:22)
t_x_719                                             1 	(obj:74)
t_x_733                                             1 	(obj:17)
t_x_744                                             1 	(obj:0)
t_x_746                                             1 	(obj:23)
t_x_747                                             1 	(obj:11)
t_x_749                                             1 	(obj:0)
t_x_752                                             1 	(obj:25)
t_x_759                                             1 	(obj:11)
t_x_760                                             1 	(obj:26)
t_x_763                                             1 	(obj:15)
t_x_764                                             1 	(obj:10)
t_x_765                                             1 	(obj:17)
t_x_766                                             1 	(obj:18)
t_x_777                                             1 	(obj:24)
t_x_780                                             1 	(obj:16)
t_x_782                                             1 	(obj:33)
t_x_783                                             1 	(obj:36)
t_x_790                                             1 	(obj:31)
t_x_794                                             1 	(obj:24)
t_x_795                                             1 	(obj:10)
t_x_796                                             1 	(obj:28)
t_x_799                                             1 	(obj:23)
t_x_800                                             1 	(obj:22)
t_x_801                                             1 	(obj:12)
t_x_802                                             1 	(obj:13)
t_x_806                                             1 	(obj:7)
t_x_811                                             1 	(obj:10)
t_x_812                                             1 	(obj:32)
t_x_814                                             1 	(obj:1)
t_x_819                                             1 	(obj:22)
t_x_820                                             1 	(obj:4)
t_x_821                                             1 	(obj:2)
t_x_824                                             1 	(obj:1)
t_x_825                                             1 	(obj:13)
t_x_828                                             1 	(obj:1)
t_x_830                                             1 	(obj:7)
t_x_834                                             1 	(obj:9)
t_x_835                                             1 	(obj:8)
t_x_839                                             1 	(obj:4)
t_x_841                                             1 	(obj:15)
t_x_844                                             1 	(obj:9)
t_x_845                                             1 	(obj:8)
t_x_848                                             1 	(obj:5)
t_x_849                                             1 	(obj:2)
t_x_850                                             1 	(obj:26)
t_x_851                                             1 	(obj:8)
t_x_854                                             1 	(obj:33)
t_x_855                                             1 	(obj:35)
t_x_856                                             1 	(obj:17)
t_x_857                                             1 	(obj:4)
t_x_861                                             1 	(obj:26)
t_x_866                                             1 	(obj:51)
t_x_876                                             1 	(obj:36)
t_x_879                                             1 	(obj:8)
t_x_883                                             1 	(obj:10)
t_x_884                                             1 	(obj:16)
t_x_886                                             1 	(obj:11)
t_x_887                                             1 	(obj:22)
t_x_890                                             1 	(obj:41)
t_x_891                                             1 	(obj:51)
t_x_898                                             1 	(obj:25)
t_x_899                                             1 	(obj:10)
t_x_900                                             1 	(obj:14)
t_x_903                                             1 	(obj:26)
t_x_909                                             1 	(obj:33)
t_x_912                                             1 	(obj:10)
t_x_915                                             1 	(obj:2)
t_x_916                                             1 	(obj:13)
t_x_917                                             1 	(obj:4)
t_x_918                                             1 	(obj:12)
t_x_921                                             1 	(obj:2)
t_x_928                                             1 	(obj:20)
t_x_929                                             1 	(obj:8)
t_x_931                                             1 	(obj:16)
t_x_935                                             1 	(obj:21)
t_x_936                                             1 	(obj:21)
t_x_947                                             1 	(obj:3)
t_x_948                                             1 	(obj:4)
t_x_956                                             1 	(obj:11)
t_x_957                                             1 	(obj:18)
t_x_963                                             1 	(obj:1)
t_x_966                                             1 	(obj:21)
t_x_970                                             1 	(obj:20)
t_x_971                                             1 	(obj:9)
t_x_973                                             1 	(obj:2)
t_x_974                                             1 	(obj:19)
t_x_981                                             1 	(obj:13)
t_x_984                                             1 	(obj:12)
t_x_989                                             1 	(obj:5)
t_x_990                                             1 	(obj:18)
t_x_1001                                            1 	(obj:20)
t_x_1002                                            1 	(obj:11)
t_x_1009                                            1 	(obj:17)
t_x_1012                                            1 	(obj:21)
t_x_1014                                            1 	(obj:15)
t_x_1016                                            1 	(obj:2)
t_x_1024                                            1 	(obj:2)
t_x_1026                                            1 	(obj:39)
t_x_1028                                            1 	(obj:28)
t_x_1031                                            1 	(obj:4)
t_x_1033                                            1 	(obj:36)
t_x_1035                                            1 	(obj:8)
t_x_1036                                            1 	(obj:34)
t_x_1037                                            1 	(obj:36)
t_x_1038                                            1 	(obj:20)
t_x_1042                                            1 	(obj:53)
t_x_1047                                            1 	(obj:16)
t_x_1048                                            1 	(obj:12)
t_x_1049                                            1 	(obj:19)
t_x_1052                                            1 	(obj:3)
t_x_1059                                            1 	(obj:50)
t_x_1061                                            1 	(obj:0)
t_x_1062                                            1 	(obj:8)
t_x_1063                                            1 	(obj:6)
t_x_1064                                            1 	(obj:51)
t_x_1067                                            1 	(obj:11)
t_x_1068                                            1 	(obj:10)
t_x_1070                                            1 	(obj:5)
t_x_1071                                            1 	(obj:18)
t_x_1073                                            1 	(obj:3)
t_x_1074                                            1 	(obj:16)
t_x_1075                                            1 	(obj:9)
t_x_1076                                            1 	(obj:1)
t_x_1077                                            1 	(obj:35)
t_x_1079                                            1 	(obj:2)
t_x_1083                                            1 	(obj:31)
t_x_1086                                            1 	(obj:3)
t_x_1087                                            1 	(obj:22)
t_x_1088                                            1 	(obj:22)
t_x_1091                                            1 	(obj:5)
t_x_1101                                            1 	(obj:21)
t_x_1107                                            1 	(obj:10)
t_x_1109                                            1 	(obj:4)
t_x_1113                                            1 	(obj:47)
t_x_1118                                            1 	(obj:12)
t_x_1126                                            1 	(obj:19)
t_x_1130                                            1 	(obj:3)
t_x_1131                                            1 	(obj:20)
t_x_1132                                            1 	(obj:1)
t_x_1136                                            1 	(obj:24)
t_x_1138                                            1 	(obj:17)
t_x_1139                                            1 	(obj:1)
t_x_1141                                            1 	(obj:16)
t_x_1142                                            1 	(obj:28)
t_x_1146                                            1 	(obj:9)
t_x_1153                                            1 	(obj:19)
t_x_1154                                            1 	(obj:25)
t_x_1155                                            1 	(obj:21)
t_x_1168                                            1 	(obj:2)
t_x_1173                                            1 	(obj:46)
t_x_1183                                            1 	(obj:10)
t_x_1184                                            1 	(obj:30)
t_x_1185                                            1 	(obj:11)
t_x_1187                                            1 	(obj:16)
t_x_1196                                            1 	(obj:19)
t_x_1199                                            1 	(obj:3)
t_x_1206                                            1 	(obj:2)
t_x_1209                                            1 	(obj:0)
t_x_1212                                            1 	(obj:20)
t_x_1215                                            1 	(obj:0)
t_x_1217                                            1 	(obj:50)
t_x_1224                                            1 	(obj:17)
t_x_1234                                            1 	(obj:40)
t_x_1235                                            1 	(obj:10)
t_x_1236                                            1 	(obj:20)
t_x_1245                                            1 	(obj:1)
t_x_1266                                            1 	(obj:20)
t_x_1272                                            1 	(obj:16)
t_x_1281                                            1 	(obj:3)
t_x_1282                                            1 	(obj:5)
t_x_1297                                            1 	(obj:8)
t_x_1306                                            1 	(obj:13)
t_x_1308                                            1 	(obj:30)
t_x_1312                                            1 	(obj:6)
t_x_1314                                            1 	(obj:3)
t_x_1315                                            1 	(obj:20)
t_x_1319                                            1 	(obj:19)
t_x_1321                                            1 	(obj:17)
t_x_1323                                            1 	(obj:1)
t_x_1328                                            1 	(obj:14)
t_x_1331                                            1 	(obj:39)
t_x_1342                                            1 	(obj:0)
t_x_1348                                            1 	(obj:22)
t_x_1352                                            1 	(obj:35)
t_x_1354                                            1 	(obj:21)
t_x_1363                                            1 	(obj:42)
t_x_1364                                            1 	(obj:2)
t_x_1371                                            1 	(obj:15)
t_x_1373                                            1 	(obj:45)
t_x_1377                                            1 	(obj:20)
t_x_1379                                            1 	(obj:40)
t_x_1385                                            1 	(obj:5)
t_x_1387                                            1 	(obj:25)
t_x_1388                                            1 	(obj:10)
t_x_1389                                            1 	(obj:2)
t_x_1405                                            1 	(obj:32)
t_x_1413                                            1 	(obj:19)
t_x_1417                                            1 	(obj:6)
t_x_1418                                            1 	(obj:16)
t_x_1424                                            1 	(obj:83)
t_x_1430                                            1 	(obj:16)
t_x_1431                                            1 	(obj:35)
t_x_1434                                            1 	(obj:24)
t_x_1436                                            1 	(obj:10)
t_x_1438                                            1 	(obj:36)
t_x_1446                                            1 	(obj:0)
t_x_1454                                            1 	(obj:54)
t_x_1457                                            1 	(obj:4)
t_x_1458                                            1 	(obj:16)
t_x_1461                                            1 	(obj:5)
t_x_1463                                            1 	(obj:5)
t_x_1468                                            1 	(obj:5)
t_x_1469                                            1 	(obj:0)
t_x_1472                                            1 	(obj:13)
t_x_1473                                            1 	(obj:13)
t_x_1474                                            1 	(obj:34)
t_x_1475                                            1 	(obj:3)
t_x_1476                                            1 	(obj:58)
t_x_1483                                            1 	(obj:27)
t_x_1484                                            1 	(obj:11)
t_x_1485                                            1 	(obj:10)
t_x_1488                                            1 	(obj:6)
t_x_1492                                            1 	(obj:34)
t_x_1494                                            1 	(obj:19)
t_x_1496                                            1 	(obj:3)
t_x_1498                                            1 	(obj:6)
t_x_1505                                            1 	(obj:3)
t_x_1509                                            1 	(obj:25)
t_x_1510                                            1 	(obj:7)
t_x_1518                                            1 	(obj:3)
t_x_1520                                            1 	(obj:5)
t_x_1521                                            1 	(obj:35)
t_x_1522                                            1 	(obj:17)
t_x_1523                                            1 	(obj:0)
t_x_1526                                            1 	(obj:15)
t_x_1527                                            1 	(obj:27)
t_x_1529                                            1 	(obj:6)
t_x_1530                                            1 	(obj:5)
t_x_1534                                            1 	(obj:10)
t_x_1535                                            1 	(obj:3)
t_x_1539                                            1 	(obj:4)
t_x_1552                                            1 	(obj:12)
t_x_1553                                            1 	(obj:23)
t_x_1559                                            1 	(obj:3)
t_x_1560                                            1 	(obj:8)
t_x_1562                                            1 	(obj:11)
t_x_1564                                            1 	(obj:10)
t_x_1565                                            1 	(obj:6)
t_x_1566                                            1 	(obj:40)
t_x_1571                                            1 	(obj:42)
t_x_1574                                            1 	(obj:43)
t_x_1577                                            1 	(obj:23)
t_x_1580                                            1 	(obj:19)
t_x_1581                                            1 	(obj:1)
t_x_1582                                            1 	(obj:28)
t_x_1583                                            1 	(obj:14)
t_x_1586                                            1 	(obj:26)
t_x_1587                                            1 	(obj:53)
t_x_1589                                            1 	(obj:31)
t_x_1602                                            1 	(obj:4)
t_x_1606                                            1 	(obj:4)
t_x_1608                                            1 	(obj:9)
t_x_1609                                            1 	(obj:37)
t_x_1611                                            1 	(obj:47)
t_x_1615                                            1 	(obj:13)
t_x_1617                                            1 	(obj:14)
t_x_1618                                            1 	(obj:10)
t_x_1619                                            1 	(obj:15)
t_x_1624                                            1 	(obj:9)
t_x_1639                                            1 	(obj:15)
t_x_1640                                            1 	(obj:24)
t_x_1641                                            1 	(obj:27)
t_x_1650                                            1 	(obj:66)
t_x_1655                                            1 	(obj:2)
t_x_1660                                            1 	(obj:15)
t_x_1665                                            1 	(obj:24)
t_x_1671                                            1 	(obj:22)
t_x_1679                                            1 	(obj:44)
t_x_1680                                            1 	(obj:4)
t_x_1682                                            1 	(obj:28)
t_x_1683                                            1 	(obj:15)
t_x_1684                                            1 	(obj:15)
t_x_1685                                            1 	(obj:2)
t_x_1686                                            1 	(obj:35)
t_x_1687                                            1 	(obj:15)
t_x_1691                                            1 	(obj:7)
t_x_1692                                            1 	(obj:22)
t_x_1702                                            1 	(obj:3)
t_x_1706                                            1 	(obj:45)
t_x_1708                                            1 	(obj:10)
t_x_1712                                            1 	(obj:29)
t_x_1715                                            1 	(obj:20)
t_x_1717                                            1 	(obj:21)
t_x_1720                                            1 	(obj:9)
t_x_1722                                            1 	(obj:46)
t_x_1726                                            1 	(obj:12)
t_x_1729                                            1 	(obj:26)
t_x_1731                                            1 	(obj:26)
t_x_1735                                            1 	(obj:13)
t_x_1746                                            1 	(obj:42)
t_x_1747                                            1 	(obj:5)
t_x_1748                                            1 	(obj:10)
t_x_1760                                            1 	(obj:0)
t_x_1761                                            1 	(obj:19)
t_x_1763                                            1 	(obj:22)
t_x_1764                                            1 	(obj:19)
t_x_1766                                            1 	(obj:38)
t_x_1768                                            1 	(obj:14)
t_x_1771                                            1 	(obj:16)
t_x_1773                                            1 	(obj:6)
t_x_1775                                            1 	(obj:8)
t_x_1780                                            1 	(obj:1)
t_x_1784                                            1 	(obj:35)
t_x_1788                                            1 	(obj:33)
t_x_1790                                            1 	(obj:52)
t_x_1794                                            1 	(obj:37)
t_x_1796                                            1 	(obj:1)
t_x_1802                                            1 	(obj:60)
t_x_1803                                            1 	(obj:21)
t_x_1807                                            1 	(obj:19)
t_x_1811                                            1 	(obj:4)
t_x_1820                                            1 	(obj:4)
t_x_1822                                            1 	(obj:6)
t_x_1827                                            1 	(obj:13)
t_x_1829                                            1 	(obj:0)
t_x_1835                                            1 	(obj:4)
t_x_1841                                            1 	(obj:29)
t_x_1847                                            1 	(obj:2)
t_x_1848                                            1 	(obj:2)
t_x_1849                                            1 	(obj:20)
t_x_1850                                            1 	(obj:20)
t_x_1851                                            1 	(obj:28)
t_x_1855                                            1 	(obj:15)
t_x_1860                                            1 	(obj:17)
t_x_1863                                            1 	(obj:20)
t_x_1867                                            1 	(obj:20)
t_x_1871                                            1 	(obj:48)
t_x_1876                                            1 	(obj:22)
t_x_1881                                            1 	(obj:26)
t_x_1885                                            1 	(obj:14)
t_x_1890                                            1 	(obj:27)
t_x_1893                                            1 	(obj:4)
t_x_1898                                            1 	(obj:13)
t_x_1900                                            1 	(obj:14)
t_x_1902                                            1 	(obj:23)
t_x_1906                                            1 	(obj:24)
t_x_1908                                            1 	(obj:19)
t_x_1910                                            1 	(obj:6)
t_x_1911                                            1 	(obj:17)
t_x_1913                                            1 	(obj:10)
t_x_1915                                            1 	(obj:30)
t_x_1920                                            1 	(obj:16)
t_x_1925                                            1 	(obj:14)
t_x_1930                                            1 	(obj:8)
t_x_1931                                            1 	(obj:18)
t_x_1936                                            1 	(obj:10)
t_x_1943                                            1 	(obj:10)
t_x_1944                                            1 	(obj:21)
t_x_1945                                            1 	(obj:16)
t_x_1956                                            1 	(obj:6)
t_x_1961                                            1 	(obj:3)
t_x_1964                                            1 	(obj:22)
t_x_1970                                            1 	(obj:46)
t_x_1972                                            1 	(obj:32)
t_x_1974                                            1 	(obj:12)
t_x_1976                                            1 	(obj:4)
t_x_1977                                            1 	(obj:40)
t_x_1982                                            1 	(obj:6)
t_x_1990                                            1 	(obj:23)
t_x_1992                                            1 	(obj:8)
t_x_1994                                            1 	(obj:30)
t_x_1996                                            1 	(obj:23)
